(set-logic ALL)
(set-option :produce-models true)
(declare-sort BoundSet 0)
(declare-sort UnboundSet 0)
(set-option :finite-model-find true)
(declare-fun IsNear (BoundSet BoundSet) Bool)
(declare-fun IsHas (BoundSet BoundSet) Bool)
(declare-fun IsNearby (BoundSet) Bool)
(assert (not (=> (and (exists ((a BoundSet)) (exists ((b BoundSet)) (IsNear b a))) (and (forall ((f BoundSet)) (forall ((e BoundSet)) (forall ((g BoundSet)) (=> (IsNear e f) (IsHas f g))))) (and (forall ((i BoundSet)) (forall ((j BoundSet)) (forall ((h BoundSet)) (=> (IsHas h i) (IsNear j h))))) (forall ((l BoundSet)) (forall ((m BoundSet)) (forall ((k BoundSet)) (=> (IsNear k l) (IsNearby m)))))))) (exists ((c BoundSet)) (exists ((a BoundSet)) (exists ((d BoundSet)) (and (IsHas a c) (IsNearby d))))))))
(check-sat)
(get-model)